
Gurobi 11.0.3 (linux64) logging started Thu Nov 21 16:43:29 2024

Set parameter LogFile to value "/home/yihong/Coding/OR_SUC/SUC_results_bigM100000_thread4/case24_ieee_rts_theta0.5_epsilon0.025_gurobi_seed90000_num_gen100_N_WDR100_load_scaling_factor1_proposed_T8quadra_cost.txt"
Set parameter TimeLimit to value 3600
Gurobi Optimizer version 11.0.3 build v11.0.3rc0 (linux64 - "Ubuntu 20.04.6 LTS")

CPU model: AMD EPYC 7532 32-Core Processor, instruction set [SSE2|AVX|AVX2]
Thread count: 64 physical cores, 128 logical processors, using up to 4 threads

Optimize a model with 16982 rows, 10021 columns and 235066 nonzeros
Model fingerprint: 0x25772a7a
Model has 800 quadratic constraints
Variable types: 9221 continuous, 800 integer (800 binary)
Coefficient statistics:
  Matrix range     [3e-04, 3e+03]
  QMatrix range    [2e-03, 8e-03]
  QLMatrix range   [1e-01, 6e+01]
  Objective range  [1e+00, 1e+00]
  Bounds range     [1e+00, 1e+00]
  RHS range        [1e+00, 9e+03]
Presolve removed 13893 rows and 4491 columns
Presolve time: 0.07s
Presolved: 3089 rows, 5530 columns, 21317 nonzeros
Presolved model has 800 quadratic constraint(s)
Variable types: 4730 continuous, 800 integer (800 binary)

Root relaxation: objective 2.520371e+04, 2521 iterations, 0.04 seconds (0.04 work units)

    Nodes    |    Current Node    |     Objective Bounds      |     Work
 Expl Unexpl |  Obj  Depth IntInf | Incumbent    BestBd   Gap | It/Node Time

H    0     0                    261027.53272 25203.7061  90.3%     -    0s
*    0     0               0    261027.53272 25203.7061  90.3%     -    0s
     0     0 161435.776    0  168 261027.533 161435.776  38.2%     -    0s
     0     0 249267.203    0   24 261027.533 249267.203  4.51%     -    0s
H    0     0                    249324.02057 249267.267  0.02%     -    0s

Cutting planes:
  Gomory: 81
  Implied bound: 117
  MIR: 23
  Flow cover: 55
  RLT: 91
  Relax-and-lift: 30

Explored 1 nodes (6174 simplex iterations) in 0.48 seconds (0.44 work units)
Thread count was 4 (of 128 available processors)

Solution count 2: 249324 261028 

Optimal solution found (tolerance 1.00e-03)
Warning: max constraint violation (8.7302e-09) exceeds tolerance
Best objective 2.493240205684e+05, best bound 2.492672666106e+05, gap 0.0228%
